; Benchmark for LTL-sketching problem
(set-logic QF_UF)
(set-info :status unknown)
(declare-fun z_0_0_0 () Bool)
(declare-fun z_0_1_0 () Bool)
(declare-fun z_0_2_0 () Bool)
(declare-fun z_0_3_0 () Bool)
(declare-fun z_0_4_0 () Bool)
(declare-fun z_0_5_0 () Bool)
(declare-fun z_0_6_0 () Bool)
(declare-fun z_0_7_0 () Bool)
(declare-fun z_0_8_0 () Bool)
(declare-fun z_0_9_0 () Bool)
(declare-fun z_0_10_0 () Bool)
(declare-fun z_0_11_0 () Bool)
(declare-fun z_0_12_0 () Bool)
(declare-fun z_0_13_0 () Bool)
(declare-fun z_0_14_0 () Bool)
(declare-fun z_0_15_0 () Bool)
(declare-fun z_0_16_0 () Bool)
(declare-fun z_0_17_0 () Bool)
(declare-fun z_0_18_0 () Bool)
(declare-fun z_0_19_0 () Bool)
(declare-fun z_0_0_1 () Bool)
(declare-fun z_2_0_0 () Bool)
(declare-fun z_0_0_2 () Bool)
(declare-fun z_2_0_1 () Bool)
(declare-fun z_0_0_3 () Bool)
(declare-fun z_2_0_2 () Bool)
(declare-fun z_0_0_4 () Bool)
(declare-fun z_2_0_3 () Bool)
(declare-fun z_0_0_5 () Bool)
(declare-fun z_2_0_4 () Bool)
(declare-fun z_0_0_6 () Bool)
(declare-fun z_2_0_5 () Bool)
(declare-fun z_0_0_7 () Bool)
(declare-fun z_2_0_6 () Bool)
(declare-fun z_0_0_8 () Bool)
(declare-fun z_2_0_7 () Bool)
(declare-fun z_0_0_9 () Bool)
(declare-fun z_2_0_8 () Bool)
(declare-fun z_0_0_10 () Bool)
(declare-fun z_2_0_9 () Bool)
(declare-fun z_2_0_10 () Bool)
(declare-fun z_0_1_1 () Bool)
(declare-fun z_2_1_0 () Bool)
(declare-fun z_0_1_2 () Bool)
(declare-fun z_2_1_1 () Bool)
(declare-fun z_0_1_3 () Bool)
(declare-fun z_2_1_2 () Bool)
(declare-fun z_0_1_4 () Bool)
(declare-fun z_2_1_3 () Bool)
(declare-fun z_0_1_5 () Bool)
(declare-fun z_2_1_4 () Bool)
(declare-fun z_0_1_6 () Bool)
(declare-fun z_2_1_5 () Bool)
(declare-fun z_0_1_7 () Bool)
(declare-fun z_2_1_6 () Bool)
(declare-fun z_2_1_7 () Bool)
(declare-fun z_0_2_1 () Bool)
(declare-fun z_2_2_0 () Bool)
(declare-fun z_0_2_2 () Bool)
(declare-fun z_2_2_1 () Bool)
(declare-fun z_0_2_3 () Bool)
(declare-fun z_2_2_2 () Bool)
(declare-fun z_0_2_4 () Bool)
(declare-fun z_2_2_3 () Bool)
(declare-fun z_0_2_5 () Bool)
(declare-fun z_2_2_4 () Bool)
(declare-fun z_0_2_6 () Bool)
(declare-fun z_2_2_5 () Bool)
(declare-fun z_0_2_7 () Bool)
(declare-fun z_2_2_6 () Bool)
(declare-fun z_0_2_8 () Bool)
(declare-fun z_2_2_7 () Bool)
(declare-fun z_0_2_9 () Bool)
(declare-fun z_2_2_8 () Bool)
(declare-fun z_0_2_10 () Bool)
(declare-fun z_2_2_9 () Bool)
(declare-fun z_2_2_10 () Bool)
(declare-fun z_0_3_1 () Bool)
(declare-fun z_2_3_0 () Bool)
(declare-fun z_0_3_2 () Bool)
(declare-fun z_2_3_1 () Bool)
(declare-fun z_0_3_3 () Bool)
(declare-fun z_2_3_2 () Bool)
(declare-fun z_0_3_4 () Bool)
(declare-fun z_2_3_3 () Bool)
(declare-fun z_0_3_5 () Bool)
(declare-fun z_2_3_4 () Bool)
(declare-fun z_0_3_6 () Bool)
(declare-fun z_2_3_5 () Bool)
(declare-fun z_0_3_7 () Bool)
(declare-fun z_2_3_6 () Bool)
(declare-fun z_0_3_8 () Bool)
(declare-fun z_2_3_7 () Bool)
(declare-fun z_0_3_9 () Bool)
(declare-fun z_2_3_8 () Bool)
(declare-fun z_0_3_10 () Bool)
(declare-fun z_2_3_9 () Bool)
(declare-fun z_2_3_10 () Bool)
(declare-fun z_0_4_1 () Bool)
(declare-fun z_2_4_0 () Bool)
(declare-fun z_0_4_2 () Bool)
(declare-fun z_2_4_1 () Bool)
(declare-fun z_0_4_3 () Bool)
(declare-fun z_2_4_2 () Bool)
(declare-fun z_0_4_4 () Bool)
(declare-fun z_2_4_3 () Bool)
(declare-fun z_0_4_5 () Bool)
(declare-fun z_2_4_4 () Bool)
(declare-fun z_0_4_6 () Bool)
(declare-fun z_2_4_5 () Bool)
(declare-fun z_0_4_7 () Bool)
(declare-fun z_2_4_6 () Bool)
(declare-fun z_0_4_8 () Bool)
(declare-fun z_2_4_7 () Bool)
(declare-fun z_2_4_8 () Bool)
(declare-fun z_0_5_1 () Bool)
(declare-fun z_2_5_0 () Bool)
(declare-fun z_0_5_2 () Bool)
(declare-fun z_2_5_1 () Bool)
(declare-fun z_0_5_3 () Bool)
(declare-fun z_2_5_2 () Bool)
(declare-fun z_2_5_3 () Bool)
(declare-fun z_0_6_1 () Bool)
(declare-fun z_2_6_0 () Bool)
(declare-fun z_0_6_2 () Bool)
(declare-fun z_2_6_1 () Bool)
(declare-fun z_0_6_3 () Bool)
(declare-fun z_2_6_2 () Bool)
(declare-fun z_0_6_4 () Bool)
(declare-fun z_2_6_3 () Bool)
(declare-fun z_0_6_5 () Bool)
(declare-fun z_2_6_4 () Bool)
(declare-fun z_0_6_6 () Bool)
(declare-fun z_2_6_5 () Bool)
(declare-fun z_0_6_7 () Bool)
(declare-fun z_2_6_6 () Bool)
(declare-fun z_0_6_8 () Bool)
(declare-fun z_2_6_7 () Bool)
(declare-fun z_2_6_8 () Bool)
(declare-fun z_0_7_1 () Bool)
(declare-fun z_2_7_0 () Bool)
(declare-fun z_0_7_2 () Bool)
(declare-fun z_2_7_1 () Bool)
(declare-fun z_0_7_3 () Bool)
(declare-fun z_2_7_2 () Bool)
(declare-fun z_0_7_4 () Bool)
(declare-fun z_2_7_3 () Bool)
(declare-fun z_0_7_5 () Bool)
(declare-fun z_2_7_4 () Bool)
(declare-fun z_0_7_6 () Bool)
(declare-fun z_2_7_5 () Bool)
(declare-fun z_0_7_7 () Bool)
(declare-fun z_2_7_6 () Bool)
(declare-fun z_0_7_8 () Bool)
(declare-fun z_2_7_7 () Bool)
(declare-fun z_0_7_9 () Bool)
(declare-fun z_2_7_8 () Bool)
(declare-fun z_2_7_9 () Bool)
(declare-fun z_0_8_1 () Bool)
(declare-fun z_2_8_0 () Bool)
(declare-fun z_0_8_2 () Bool)
(declare-fun z_2_8_1 () Bool)
(declare-fun z_0_8_3 () Bool)
(declare-fun z_2_8_2 () Bool)
(declare-fun z_0_8_4 () Bool)
(declare-fun z_2_8_3 () Bool)
(declare-fun z_0_8_5 () Bool)
(declare-fun z_2_8_4 () Bool)
(declare-fun z_0_8_6 () Bool)
(declare-fun z_2_8_5 () Bool)
(declare-fun z_0_8_7 () Bool)
(declare-fun z_2_8_6 () Bool)
(declare-fun z_0_8_8 () Bool)
(declare-fun z_2_8_7 () Bool)
(declare-fun z_0_8_9 () Bool)
(declare-fun z_2_8_8 () Bool)
(declare-fun z_0_8_10 () Bool)
(declare-fun z_2_8_9 () Bool)
(declare-fun z_2_8_10 () Bool)
(declare-fun z_0_9_1 () Bool)
(declare-fun z_2_9_0 () Bool)
(declare-fun z_0_9_2 () Bool)
(declare-fun z_2_9_1 () Bool)
(declare-fun z_0_9_3 () Bool)
(declare-fun z_2_9_2 () Bool)
(declare-fun z_0_9_4 () Bool)
(declare-fun z_2_9_3 () Bool)
(declare-fun z_0_9_5 () Bool)
(declare-fun z_2_9_4 () Bool)
(declare-fun z_0_9_6 () Bool)
(declare-fun z_2_9_5 () Bool)
(declare-fun z_0_9_7 () Bool)
(declare-fun z_2_9_6 () Bool)
(declare-fun z_2_9_7 () Bool)
(declare-fun z_2_10_0 () Bool)
(declare-fun z_2_11_0 () Bool)
(declare-fun z_2_12_0 () Bool)
(declare-fun z_2_13_0 () Bool)
(declare-fun z_2_14_0 () Bool)
(declare-fun z_2_15_0 () Bool)
(declare-fun z_2_16_0 () Bool)
(declare-fun z_2_17_0 () Bool)
(declare-fun z_2_18_0 () Bool)
(declare-fun z_2_19_0 () Bool)
(declare-fun x_2_p () Bool)
(declare-fun x_2_-> () Bool)
(declare-fun x_2_U () Bool)
(declare-fun x_2_v () Bool)
(declare-fun x_2_& () Bool)
(declare-fun x_2_X () Bool)
(declare-fun x_2_! () Bool)
(declare-fun x_2_F () Bool)
(declare-fun x_2_G () Bool)
(assert
 (= z_0_0_0 true))
(assert
 (= z_0_1_0 true))
(assert
 (= z_0_2_0 true))
(assert
 (= z_0_3_0 true))
(assert
 (= z_0_4_0 true))
(assert
 (= z_0_5_0 true))
(assert
 (= z_0_6_0 true))
(assert
 (= z_0_7_0 true))
(assert
 (= z_0_8_0 true))
(assert
 (= z_0_9_0 true))
(assert
 (= z_0_10_0 false))
(assert
 (= z_0_11_0 false))
(assert
 (= z_0_12_0 false))
(assert
 (= z_0_13_0 false))
(assert
 (= z_0_14_0 false))
(assert
 (= z_0_15_0 false))
(assert
 (= z_0_16_0 false))
(assert
 (= z_0_17_0 false))
(assert
 (= z_0_18_0 false))
(assert
 (= z_0_19_0 false))
(assert
 (= z_0_0_0 (or z_2_0_0 z_0_0_1)))
(assert
 (= z_0_0_1 (or z_2_0_1 z_0_0_2)))
(assert
 (= z_0_0_2 (or z_2_0_2 z_0_0_3)))
(assert
 (= z_0_0_3 (or z_2_0_3 z_0_0_4)))
(assert
 (= z_0_0_4 (or z_2_0_4 z_0_0_5)))
(assert
 (= z_0_0_5 (or z_2_0_5 z_0_0_6)))
(assert
 (= z_0_0_6 (or z_2_0_6 z_0_0_7)))
(assert
 (= z_0_0_7 (or z_2_0_7 z_0_0_8)))
(assert
 (= z_0_0_8 (or z_2_0_8 z_0_0_9)))
(assert
 (= z_0_0_9 (or z_2_0_9 z_0_0_10)))
(assert
 (= z_0_0_10 (or z_2_0_5 z_2_0_6 z_2_0_7 z_2_0_8 z_2_0_9 z_2_0_10)))
(assert
 (= z_0_1_0 (or z_2_1_0 z_0_1_1)))
(assert
 (= z_0_1_1 (or z_2_1_1 z_0_1_2)))
(assert
 (= z_0_1_2 (or z_2_1_2 z_0_1_3)))
(assert
 (= z_0_1_3 (or z_2_1_3 z_0_1_4)))
(assert
 (= z_0_1_4 (or z_2_1_4 z_0_1_5)))
(assert
 (= z_0_1_5 (or z_2_1_5 z_0_1_6)))
(assert
 (= z_0_1_6 (or z_2_1_6 z_0_1_7)))
(assert
 (= z_0_1_7 (or z_2_1_3 z_2_1_4 z_2_1_5 z_2_1_6 z_2_1_7)))
(assert
 (= z_0_2_0 (or z_2_2_0 z_0_2_1)))
(assert
 (= z_0_2_1 (or z_2_2_1 z_0_2_2)))
(assert
 (= z_0_2_2 (or z_2_2_2 z_0_2_3)))
(assert
 (= z_0_2_3 (or z_2_2_3 z_0_2_4)))
(assert
 (= z_0_2_4 (or z_2_2_4 z_0_2_5)))
(assert
 (= z_0_2_5 (or z_2_2_5 z_0_2_6)))
(assert
 (= z_0_2_6 (or z_2_2_6 z_0_2_7)))
(assert
 (= z_0_2_7 (or z_2_2_7 z_0_2_8)))
(assert
 (= z_0_2_8 (or z_2_2_8 z_0_2_9)))
(assert
 (= z_0_2_9 (or z_2_2_9 z_0_2_10)))
(assert
 (= z_0_2_10 (or z_2_2_5 z_2_2_6 z_2_2_7 z_2_2_8 z_2_2_9 z_2_2_10)))
(assert
 (= z_0_3_0 (or z_2_3_0 z_0_3_1)))
(assert
 (= z_0_3_1 (or z_2_3_1 z_0_3_2)))
(assert
 (= z_0_3_2 (or z_2_3_2 z_0_3_3)))
(assert
 (= z_0_3_3 (or z_2_3_3 z_0_3_4)))
(assert
 (= z_0_3_4 (or z_2_3_4 z_0_3_5)))
(assert
 (= z_0_3_5 (or z_2_3_5 z_0_3_6)))
(assert
 (= z_0_3_6 (or z_2_3_6 z_0_3_7)))
(assert
 (= z_0_3_7 (or z_2_3_7 z_0_3_8)))
(assert
 (= z_0_3_8 (or z_2_3_8 z_0_3_9)))
(assert
 (= z_0_3_9 (or z_2_3_9 z_0_3_10)))
(assert
 (= z_0_3_10 (or z_2_3_5 z_2_3_6 z_2_3_7 z_2_3_8 z_2_3_9 z_2_3_10)))
(assert
 (= z_0_4_0 (or z_2_4_0 z_0_4_1)))
(assert
 (= z_0_4_1 (or z_2_4_1 z_0_4_2)))
(assert
 (= z_0_4_2 (or z_2_4_2 z_0_4_3)))
(assert
 (= z_0_4_3 (or z_2_4_3 z_0_4_4)))
(assert
 (= z_0_4_4 (or z_2_4_4 z_0_4_5)))
(assert
 (= z_0_4_5 (or z_2_4_5 z_0_4_6)))
(assert
 (= z_0_4_6 (or z_2_4_6 z_0_4_7)))
(assert
 (= z_0_4_7 (or z_2_4_7 z_0_4_8)))
(assert
 (= z_0_4_8 (or z_2_4_4 z_2_4_5 z_2_4_6 z_2_4_7 z_2_4_8)))
(assert
 (= z_0_5_0 (or z_2_5_0 z_0_5_1)))
(assert
 (= z_0_5_1 (or z_2_5_1 z_0_5_2)))
(assert
 (= z_0_5_2 (or z_2_5_2 z_0_5_3)))
(assert
 (= z_0_5_3 (or z_2_5_3)))
(assert
 (= z_0_6_0 (or z_2_6_0 z_0_6_1)))
(assert
 (= z_0_6_1 (or z_2_6_1 z_0_6_2)))
(assert
 (= z_0_6_2 (or z_2_6_2 z_0_6_3)))
(assert
 (= z_0_6_3 (or z_2_6_3 z_0_6_4)))
(assert
 (= z_0_6_4 (or z_2_6_4 z_0_6_5)))
(assert
 (= z_0_6_5 (or z_2_6_5 z_0_6_6)))
(assert
 (= z_0_6_6 (or z_2_6_6 z_0_6_7)))
(assert
 (= z_0_6_7 (or z_2_6_7 z_0_6_8)))
(assert
 (= z_0_6_8 (or z_2_6_4 z_2_6_5 z_2_6_6 z_2_6_7 z_2_6_8)))
(assert
 (= z_0_7_0 (or z_2_7_0 z_0_7_1)))
(assert
 (= z_0_7_1 (or z_2_7_1 z_0_7_2)))
(assert
 (= z_0_7_2 (or z_2_7_2 z_0_7_3)))
(assert
 (= z_0_7_3 (or z_2_7_3 z_0_7_4)))
(assert
 (= z_0_7_4 (or z_2_7_4 z_0_7_5)))
(assert
 (= z_0_7_5 (or z_2_7_5 z_0_7_6)))
(assert
 (= z_0_7_6 (or z_2_7_6 z_0_7_7)))
(assert
 (= z_0_7_7 (or z_2_7_7 z_0_7_8)))
(assert
 (= z_0_7_8 (or z_2_7_8 z_0_7_9)))
(assert
 (= z_0_7_9 (or z_2_7_6 z_2_7_7 z_2_7_8 z_2_7_9)))
(assert
 (= z_0_8_0 (or z_2_8_0 z_0_8_1)))
(assert
 (= z_0_8_1 (or z_2_8_1 z_0_8_2)))
(assert
 (= z_0_8_2 (or z_2_8_2 z_0_8_3)))
(assert
 (= z_0_8_3 (or z_2_8_3 z_0_8_4)))
(assert
 (= z_0_8_4 (or z_2_8_4 z_0_8_5)))
(assert
 (= z_0_8_5 (or z_2_8_5 z_0_8_6)))
(assert
 (= z_0_8_6 (or z_2_8_6 z_0_8_7)))
(assert
 (= z_0_8_7 (or z_2_8_7 z_0_8_8)))
(assert
 (= z_0_8_8 (or z_2_8_8 z_0_8_9)))
(assert
 (= z_0_8_9 (or z_2_8_9 z_0_8_10)))
(assert
 (= z_0_8_10 (or z_2_8_5 z_2_8_6 z_2_8_7 z_2_8_8 z_2_8_9 z_2_8_10)))
(assert
 (= z_0_9_0 (or z_2_9_0 z_0_9_1)))
(assert
 (= z_0_9_1 (or z_2_9_1 z_0_9_2)))
(assert
 (= z_0_9_2 (or z_2_9_2 z_0_9_3)))
(assert
 (= z_0_9_3 (or z_2_9_3 z_0_9_4)))
(assert
 (= z_0_9_4 (or z_2_9_4 z_0_9_5)))
(assert
 (= z_0_9_5 (or z_2_9_5 z_0_9_6)))
(assert
 (= z_0_9_6 (or z_2_9_6 z_0_9_7)))
(assert
 (= z_0_9_7 (or z_2_9_4 z_2_9_5 z_2_9_6 z_2_9_7)))
(assert
 (= z_0_10_0 (or z_2_10_0)))
(assert
 (= z_0_11_0 (or z_2_11_0)))
(assert
 (= z_0_12_0 (or z_2_12_0)))
(assert
 (= z_0_13_0 (or z_2_13_0)))
(assert
 (= z_0_14_0 (or z_2_14_0)))
(assert
 (= z_0_15_0 (or z_2_15_0)))
(assert
 (= z_0_16_0 (or z_2_16_0)))
(assert
 (= z_0_17_0 (or z_2_17_0)))
(assert
 (= z_0_18_0 (or z_2_18_0)))
(assert
 (= z_0_19_0 (or z_2_19_0)))
(assert
 (and true true))
(assert
 (=> x_2_p z_2_0_0))
(assert
 (let (($x2182 (not z_2_0_1)))
 (=> x_2_p $x2182)))
(assert
 (let (($x2185 (not z_2_0_2)))
 (=> x_2_p $x2185)))
(assert
 (let (($x2188 (not z_2_0_3)))
 (=> x_2_p $x2188)))
(assert
 (=> x_2_p z_2_0_4))
(assert
 (=> x_2_p z_2_0_5))
(assert
 (=> x_2_p z_2_0_6))
(assert
 (=> x_2_p z_2_0_7))
(assert
 (=> x_2_p z_2_0_8))
(assert
 (let (($x2201 (not z_2_0_9)))
 (=> x_2_p $x2201)))
(assert
 (let (($x2204 (not z_2_0_10)))
 (=> x_2_p $x2204)))
(assert
 (let (($x2207 (not z_2_1_0)))
 (=> x_2_p $x2207)))
(assert
 (let (($x2210 (not z_2_1_1)))
 (=> x_2_p $x2210)))
(assert
 (=> x_2_p z_2_1_2))
(assert
 (let (($x2215 (not z_2_1_3)))
 (=> x_2_p $x2215)))
(assert
 (=> x_2_p z_2_1_4))
(assert
 (=> x_2_p z_2_1_5))
(assert
 (let (($x2222 (not z_2_1_6)))
 (=> x_2_p $x2222)))
(assert
 (let (($x2225 (not z_2_1_7)))
 (=> x_2_p $x2225)))
(assert
 (=> x_2_p z_2_2_0))
(assert
 (let (($x2230 (not z_2_2_1)))
 (=> x_2_p $x2230)))
(assert
 (=> x_2_p z_2_2_2))
(assert
 (=> x_2_p z_2_2_3))
(assert
 (=> x_2_p z_2_2_4))
(assert
 (=> x_2_p z_2_2_5))
(assert
 (let (($x2241 (not z_2_2_6)))
 (=> x_2_p $x2241)))
(assert
 (let (($x2244 (not z_2_2_7)))
 (=> x_2_p $x2244)))
(assert
 (let (($x2247 (not z_2_2_8)))
 (=> x_2_p $x2247)))
(assert
 (=> x_2_p z_2_2_9))
(assert
 (let (($x2252 (not z_2_2_10)))
 (=> x_2_p $x2252)))
(assert
 (=> x_2_p z_2_3_0))
(assert
 (=> x_2_p z_2_3_1))
(assert
 (=> x_2_p z_2_3_2))
(assert
 (let (($x2261 (not z_2_3_3)))
 (=> x_2_p $x2261)))
(assert
 (=> x_2_p z_2_3_4))
(assert
 (=> x_2_p z_2_3_5))
(assert
 (let (($x2268 (not z_2_3_6)))
 (=> x_2_p $x2268)))
(assert
 (let (($x2271 (not z_2_3_7)))
 (=> x_2_p $x2271)))
(assert
 (let (($x2274 (not z_2_3_8)))
 (=> x_2_p $x2274)))
(assert
 (=> x_2_p z_2_3_9))
(assert
 (let (($x2279 (not z_2_3_10)))
 (=> x_2_p $x2279)))
(assert
 (=> x_2_p z_2_4_0))
(assert
 (=> x_2_p z_2_4_1))
(assert
 (let (($x2286 (not z_2_4_2)))
 (=> x_2_p $x2286)))
(assert
 (=> x_2_p z_2_4_3))
(assert
 (let (($x2291 (not z_2_4_4)))
 (=> x_2_p $x2291)))
(assert
 (let (($x2294 (not z_2_4_5)))
 (=> x_2_p $x2294)))
(assert
 (=> x_2_p z_2_4_6))
(assert
 (=> x_2_p z_2_4_7))
(assert
 (let (($x2301 (not z_2_4_8)))
 (=> x_2_p $x2301)))
(assert
 (let (($x2304 (not z_2_5_0)))
 (=> x_2_p $x2304)))
(assert
 (=> x_2_p z_2_5_1))
(assert
 (=> x_2_p z_2_5_2))
(assert
 (let (($x2311 (not z_2_5_3)))
 (=> x_2_p $x2311)))
(assert
 (=> x_2_p z_2_6_0))
(assert
 (let (($x2316 (not z_2_6_1)))
 (=> x_2_p $x2316)))
(assert
 (=> x_2_p z_2_6_2))
(assert
 (let (($x2321 (not z_2_6_3)))
 (=> x_2_p $x2321)))
(assert
 (let (($x2324 (not z_2_6_4)))
 (=> x_2_p $x2324)))
(assert
 (let (($x2327 (not z_2_6_5)))
 (=> x_2_p $x2327)))
(assert
 (let (($x2330 (not z_2_6_6)))
 (=> x_2_p $x2330)))
(assert
 (=> x_2_p z_2_6_7))
(assert
 (=> x_2_p z_2_6_8))
(assert
 (let (($x2337 (not z_2_7_0)))
 (=> x_2_p $x2337)))
(assert
 (let (($x2340 (not z_2_7_1)))
 (=> x_2_p $x2340)))
(assert
 (let (($x2343 (not z_2_7_2)))
 (=> x_2_p $x2343)))
(assert
 (=> x_2_p z_2_7_3))
(assert
 (let (($x2348 (not z_2_7_4)))
 (=> x_2_p $x2348)))
(assert
 (let (($x2351 (not z_2_7_5)))
 (=> x_2_p $x2351)))
(assert
 (=> x_2_p z_2_7_6))
(assert
 (let (($x2356 (not z_2_7_7)))
 (=> x_2_p $x2356)))
(assert
 (=> x_2_p z_2_7_8))
(assert
 (=> x_2_p z_2_7_9))
(assert
 (=> x_2_p z_2_8_0))
(assert
 (=> x_2_p z_2_8_1))
(assert
 (let (($x2367 (not z_2_8_2)))
 (=> x_2_p $x2367)))
(assert
 (let (($x2370 (not z_2_8_3)))
 (=> x_2_p $x2370)))
(assert
 (let (($x2373 (not z_2_8_4)))
 (=> x_2_p $x2373)))
(assert
 (=> x_2_p z_2_8_5))
(assert
 (let (($x2378 (not z_2_8_6)))
 (=> x_2_p $x2378)))
(assert
 (let (($x2381 (not z_2_8_7)))
 (=> x_2_p $x2381)))
(assert
 (let (($x2384 (not z_2_8_8)))
 (=> x_2_p $x2384)))
(assert
 (=> x_2_p z_2_8_9))
(assert
 (=> x_2_p z_2_8_10))
(assert
 (=> x_2_p z_2_9_0))
(assert
 (let (($x2393 (not z_2_9_1)))
 (=> x_2_p $x2393)))
(assert
 (let (($x2396 (not z_2_9_2)))
 (=> x_2_p $x2396)))
(assert
 (=> x_2_p z_2_9_3))
(assert
 (=> x_2_p z_2_9_4))
(assert
 (=> x_2_p z_2_9_5))
(assert
 (=> x_2_p z_2_9_6))
(assert
 (let (($x2407 (not z_2_9_7)))
 (=> x_2_p $x2407)))
(assert
 (let (($x2410 (not z_2_10_0)))
 (=> x_2_p $x2410)))
(assert
 (let (($x2413 (not z_2_11_0)))
 (=> x_2_p $x2413)))
(assert
 (let (($x2416 (not z_2_12_0)))
 (=> x_2_p $x2416)))
(assert
 (let (($x2419 (not z_2_13_0)))
 (=> x_2_p $x2419)))
(assert
 (let (($x2422 (not z_2_14_0)))
 (=> x_2_p $x2422)))
(assert
 (let (($x2425 (not z_2_15_0)))
 (=> x_2_p $x2425)))
(assert
 (let (($x2428 (not z_2_16_0)))
 (=> x_2_p $x2428)))
(assert
 (let (($x2431 (not z_2_17_0)))
 (=> x_2_p $x2431)))
(assert
 (let (($x2434 (not z_2_18_0)))
 (=> x_2_p $x2434)))
(assert
 (let (($x2437 (not z_2_19_0)))
 (=> x_2_p $x2437)))
(assert
 (or x_2_p))
(assert
 (let (($x2177 (not x_2_->)))
 (let (($x2175 (not x_2_U)))
 (let (($x2173 (not x_2_v)))
 (let (($x2171 (not x_2_&)))
 (let (($x2169 (not x_2_X)))
 (let (($x2167 (not x_2_!)))
 (let (($x2165 (not x_2_F)))
 (let (($x2163 (not x_2_G)))
 (and $x2163 $x2165 $x2167 $x2169 $x2171 $x2173 $x2175 $x2177))))))))))
(check-sat)

